p tw 400 6001 7 
1 8 
1 81 
2 9 
2 10 
2 82 
3 7 
3 10 
3 151 
4 8 
4 9 
4 152 
5 7 
5 9 
5 341 
6 8 
6 10 
6 342 
11 17 
11 18 
11 31 
12 19 
12 20 
12 32 
13 17 
13 20 
13 41 
14 18 
14 19 
14 42 
15 17 
15 19 
15 381 
16 18 
16 20 
16 382 
21 27 
21 28 
21 141 
22 29 
22 30 
22 142 
23 27 
23 30 
23 171 
24 28 
24 29 
24 172 
25 27 
25 29 
25 291 
26 28 
26 30 
26 292 
31 37 
31 38 
32 39 
32 40 
33 37 
33 40 
33 271 
34 38 
34 39 
34 272 
35 37 
35 39 
35 371 
36 38 
36 40 
36 372 
41 47 
41 48 
42 49 
42 50 
43 47 
43 50 
43 91 
44 48 
44 49 
44 92 
45 47 
45 49 
45 301 
46 48 
46 50 
46 302 
51 57 
51 58 
51 101 
52 59 
52 60 
52 102 
53 57 
53 60 
53 191 
54 58 
54 59 
54 192 
55 57 
55 59 
55 361 
56 58 
56 60 
56 362 
61 67 
61 68 
61 121 
62 69 
62 70 
62 122 
63 67 
63 70 
63 161 
64 68 
64 69 
64 162 
65 67 
65 69 
65 261 
66 68 
66 70 
66 262 
71 77 
71 78 
71 111 
72 79 
72 80 
72 112 
73 77 
73 80 
73 331 
74 78 
74 79 
74 332 
75 77 
75 79 
75 383 
76 78 
76 80 
76 384 
81 87 
81 88 
82 89 
82 90 
83 87 
83 90 
83 113 
84 88 
84 89 
84 114 
85 87 
85 89 
85 211 
86 88 
86 90 
86 212 
91 97 
91 98 
92 99 
92 100 
93 97 
93 100 
93 321 
94 98 
94 99 
94 322 
95 97 
95 99 
95 391 
96 98 
96 100 
96 392 
101 107 
101 108 
102 109 
102 110 
103 107 
103 110 
103 241 
104 108 
104 109 
104 242 
105 107 
105 109 
105 323 
106 108 
106 110 
106 324 
111 117 
111 118 
112 119 
112 120 
113 117 
113 120 
114 118 
114 119 
115 117 
115 119 
115 163 
116 118 
116 120 
116 164 
121 127 
121 128 
122 129 
122 130 
123 127 
123 130 
123 193 
124 128 
124 129 
124 194 
125 127 
125 129 
125 273 
126 128 
126 130 
126 274 
131 137 
131 138 
131 221 
132 139 
132 140 
132 222 
133 137 
133 140 
133 231 
134 138 
134 139 
134 232 
135 137 
135 139 
135 385 
136 138 
136 140 
136 386 
141 147 
141 148 
142 149 
142 150 
143 147 
143 150 
143 281 
144 148 
144 149 
144 282 
145 147 
145 149 
145 293 
146 148 
146 150 
146 294 
151 157 
151 158 
152 159 
152 160 
153 157 
153 160 
153 363 
154 158 
154 159 
154 364 
155 157 
155 159 
155 393 
156 158 
156 160 
156 394 
161 167 
161 168 
162 169 
162 170 
163 167 
163 170 
164 168 
164 169 
165 167 
165 169 
165 251 
166 168 
166 170 
166 252 
171 177 
171 178 
172 179 
172 180 
173 177 
173 180 
173 195 
174 178 
174 179 
174 196 
175 177 
175 179 
175 233 
176 178 
176 180 
176 234 
181 187 
181 188 
181 295 
182 189 
182 190 
182 296 
183 187 
183 190 
183 311 
184 188 
184 189 
184 312 
185 187 
185 189 
185 343 
186 188 
186 190 
186 344 
191 197 
191 198 
192 199 
192 200 
193 197 
193 200 
194 198 
194 199 
195 197 
195 199 
196 198 
196 200 
201 207 
201 208 
201 253 
202 209 
202 210 
202 254 
203 207 
203 210 
203 313 
204 208 
204 209 
204 314 
205 207 
205 209 
205 351 
206 208 
206 210 
206 352 
211 217 
211 218 
212 219 
212 220 
213 217 
213 220 
213 243 
214 218 
214 219 
214 244 
215 217 
215 219 
215 345 
216 218 
216 220 
216 346 
221 227 
221 228 
222 229 
222 230 
223 227 
223 230 
223 283 
224 228 
224 229 
224 284 
225 227 
225 229 
225 395 
226 228 
226 230 
226 396 
231 237 
231 238 
232 239 
232 240 
233 237 
233 240 
234 238 
234 239 
235 237 
235 239 
235 333 
236 238 
236 240 
236 334 
241 247 
241 248 
242 249 
242 250 
243 247 
243 250 
244 248 
244 249 
245 247 
245 249 
245 335 
246 248 
246 250 
246 336 
251 257 
251 258 
252 259 
252 260 
253 257 
253 260 
254 258 
254 259 
255 257 
255 259 
255 353 
256 258 
256 260 
256 354 
261 267 
261 268 
262 269 
262 270 
263 267 
263 270 
263 365 
264 268 
264 269 
264 366 
265 267 
265 269 
265 373 
266 268 
266 270 
266 374 
271 277 
271 278 
272 279 
272 280 
273 277 
273 280 
274 278 
274 279 
275 277 
275 279 
275 285 
276 278 
276 280 
276 286 
281 287 
281 288 
282 289 
282 290 
283 287 
283 290 
284 288 
284 289 
285 287 
285 289 
286 288 
286 290 
291 297 
291 298 
292 299 
292 300 
293 297 
293 300 
294 298 
294 299 
295 297 
295 299 
296 298 
296 300 
301 307 
301 308 
302 309 
302 310 
303 307 
303 310 
303 315 
304 308 
304 309 
304 316 
305 307 
305 309 
305 325 
306 308 
306 310 
306 326 
311 317 
311 318 
312 319 
312 320 
313 317 
313 320 
314 318 
314 319 
315 317 
315 319 
316 318 
316 320 
321 327 
321 328 
322 329 
322 330 
323 327 
323 330 
324 328 
324 329 
325 327 
325 329 
326 328 
326 330 
331 337 
331 338 
332 339 
332 340 
333 337 
333 340 
334 338 
334 339 
335 337 
335 339 
336 338 
336 340 
341 347 
341 348 
342 349 
342 350 
343 347 
343 350 
344 348 
344 349 
345 347 
345 349 
346 348 
346 350 
351 357 
351 358 
352 359 
352 360 
353 357 
353 360 
354 358 
354 359 
355 357 
355 359 
355 375 
356 358 
356 360 
356 376 
361 367 
361 368 
362 369 
362 370 
363 367 
363 370 
364 368 
364 369 
365 367 
365 369 
366 368 
366 370 
371 377 
371 378 
372 379 
372 380 
373 377 
373 380 
374 378 
374 379 
375 377 
375 379 
376 378 
376 380 
381 387 
381 388 
382 389 
382 390 
383 387 
383 390 
384 388 
384 389 
385 387 
385 389 
386 388 
386 390 
391 397 
391 398 
392 399 
392 400 
393 397 
393 400 
394 398 
394 399 
395 397 
395 399 
396 398 
396 400 
